16,5	0,0	17,9	13,9	0,0	0,0	0,0	0,0	0,0	18,4
14,5	15,1	0,0	10,3	15,7	0,0	0,0	17,6	0,0	0,0
0,0	0,0	18,4	0,0	8,1	5,8	0,0	0,0	15,4	0,0
10,9	0,0	13,4	0,0	0,0	0,0	8,0	0,0	0,0	0,0
0,0	18,6	0,0	9,4	16,5	0,0	0,0	11,2	0,0	0,0
0,0	16,1	7,7	0,0	17,9	11,3	0,0	0,0	12,6	0,0
0,0	5,6	0,0	8,9	0,0	0,0	12,5	0,0	0,0	15,8
5,4	0,0	12,6	0,0	0,0	0,0	0,0	0,0	0,0	5,1
0,0	14,6	0,0	10,7	7,1	0,0	0,0	18,8	0,0	0,0
0,0	0,0	5,7	0,0	0,0	10,7	14,2	0,0	0,0	8,8
0,0	14,1	0,0	0,0	19,2	0,0	12,6	0,0	16,8	13,8
8,1	0,0	7,0	0,0	19,8	0,0	18,3	12,3	17,9	0,0
0,0	8,0	0,0	0,0	0,0	15,6	0,0	14,8	7,1	9,0
16,8	18,8	7,8	0,0	0,0	10,8	0,0	6,0	9,7	0,0
7,3	0,0	14,2	0,0	11,3	8,0	8,2	14,9	0,0	0,0
0,0	18,2	0,0	9,3	0,0	11,0	0,0	18,2	0,0	0,0
6,7	0,0	9,7	19,8	6,0	0,0	0,0	15,4	0,0	0,0
0,0	0,0	12,4	0,0	0,0	7,7	17,4	0,0	10,0	13,2
9,8	0,0	0,0	12,1	19,1	10,9	16,4	12,5	0,0	17,6
0,0	18,9	0,0	8,9	0,0	0,0	11,4	0,0	5,6	13,1
									
3,1	3,7	3,6	4,8	4,5	4,7	4,4	3,5	3,2	3,4
